c FILE /home/rafael/Documents/HappySet/MIHS/inputs/happygen/output/graph_d_regular_k20_p0.2_v100_20241127_084126.txt
c SOURCE This is a d-regular graph formed for the happy graph colouring problem.
c DESCRIPTION It was generated using the problem generator of Rhyd Lewis
c
c GRAPH STATS
c Seed                             = 3412612
c Number of Nodes                  = 100
c Number of colours k              = 20
c Number of pre-assignments        = 20
c Degree of all vertices           = 6
c Density                          = 0.0606061
c 
c The degrees of nodes 1 to 100, respectively, are as follows 
c [6, 6, 6, 6, 6, 6, 6, 6, 6, 6, 6, 6, 6, 6, 6, 6, 6, 6, 6, 6, 6, 6, 6, 6, 6, 6, 
c  6, 6, 6, 6, 6, 6, 6, 6, 6, 6, 6, 6, 6, 6, 6, 6, 6, 6, 6, 6, 6, 6, 6, 6, 6, 
c  6, 6, 6, 6, 6, 6, 6, 6, 6, 6, 6, 6, 6, 6, 6, 6, 6, 6, 6, 6, 6, 6, 6, 6, 6, 
c  6, 6, 6, 6, 6, 6, 6, 6, 6, 6, 6, 6, 6, 6, 6, 6, 6, 6, 6, 6, 6, 6, 6, 6] 
c  
p edge 100 300 20
e 1 16
e 1 19
e 1 20
e 1 39
e 1 95
e 1 99
e 2 10
e 2 17
e 2 29
e 2 30
e 2 52
e 2 65
e 3 9
e 3 66
e 3 77
e 3 83
e 3 90
e 3 100
e 4 5
e 4 21
e 4 24
e 4 45
e 4 58
e 4 85
e 5 17
e 5 28
e 5 34
e 5 50
e 5 77
e 6 25
e 6 32
e 6 43
e 6 56
e 6 67
e 6 81
e 7 22
e 7 30
e 7 32
e 7 45
e 7 69
e 7 71
e 8 14
e 8 17
e 8 20
e 8 43
e 8 73
e 8 97
e 9 24
e 9 47
e 9 70
e 9 78
e 9 81
e 10 49
e 10 59
e 10 70
e 10 77
e 10 93
e 11 18
e 11 57
e 11 71
e 11 92
e 11 97
e 11 100
e 12 24
e 12 29
e 12 44
e 12 50
e 12 71
e 12 89
e 13 34
e 13 49
e 13 54
e 13 57
e 13 84
e 13 98
e 14 35
e 14 54
e 14 79
e 14 85
e 14 91
e 15 18
e 15 31
e 15 58
e 15 81
e 15 88
e 15 96
e 16 25
e 16 29
e 16 31
e 16 73
e 16 84
e 17 27
e 17 62
e 17 87
e 18 46
e 18 54
e 18 74
e 18 97
e 19 37
e 19 41
e 19 65
e 19 66
e 19 93
e 20 41
e 20 42
e 20 61
e 20 85
e 21 22
e 21 63
e 21 81
e 21 84
e 21 96
e 22 43
e 22 59
e 22 78
e 22 97
e 23 26
e 23 45
e 23 68
e 23 83
e 23 95
e 23 100
e 24 53
e 24 57
e 24 82
e 25 38
e 25 70
e 25 79
e 25 86
e 26 33
e 26 36
e 26 41
e 26 55
e 26 75
e 27 33
e 27 46
e 27 62
e 27 93
e 27 99
e 28 56
e 28 74
e 28 77
e 28 81
e 28 98
e 29 60
e 29 82
e 29 92
e 30 36
e 30 40
e 30 62
e 30 64
e 31 61
e 31 73
e 31 89
e 31 90
e 32 68
e 32 70
e 32 72
e 32 87
e 33 47
e 33 59
e 33 61
e 33 78
e 34 47
e 34 55
e 34 63
e 34 67
e 35 54
e 35 55
e 35 75
e 35 82
e 35 100
e 36 37
e 36 49
e 36 65
e 36 92
e 37 69
e 37 87
e 37 93
e 37 100
e 38 57
e 38 60
e 38 62
e 38 68
e 38 82
e 39 50
e 39 52
e 39 62
e 39 64
e 39 70
e 40 55
e 40 73
e 40 78
e 40 86
e 40 90
e 41 77
e 41 96
e 41 98
e 42 43
e 42 58
e 42 72
e 42 76
e 42 78
e 43 48
e 43 92
e 44 54
e 44 63
e 44 67
e 44 74
e 44 76
e 45 87
e 45 95
e 45 98
e 46 64
e 46 84
e 46 93
e 46 97
e 47 52
e 47 65
e 47 79
e 48 56
e 48 72
e 48 87
e 48 88
e 48 91
e 49 50
e 49 51
e 49 85
e 50 69
e 50 94
e 51 53
e 51 60
e 51 66
e 51 83
e 51 96
e 52 66
e 52 69
e 52 89
e 53 64
e 53 74
e 53 75
e 53 83
e 54 89
e 55 73
e 55 99
e 56 65
e 56 80
e 56 94
e 57 67
e 57 89
e 58 70
e 58 88
e 58 90
e 59 62
e 59 69
e 59 90
e 60 61
e 60 77
e 60 80
e 61 75
e 61 94
e 63 65
e 63 76
e 63 96
e 64 72
e 64 82
e 66 74
e 66 80
e 67 89
e 67 94
e 68 88
e 68 90
e 68 93
e 69 94
e 71 76
e 71 84
e 71 88
e 72 75
e 72 83
e 73 86
e 74 91
e 75 82
e 76 86
e 76 95
e 78 95
e 79 80
e 79 99
e 79 100
e 80 85
e 80 88
e 81 98
e 83 86
e 84 85
e 86 97
e 87 92
e 91 92
e 91 96
e 91 99
e 94 95
e 98 99
n 2 12
n 6 3
n 9 16
n 13 11
n 19 1
n 21 14
n 36 10
n 40 8
n 42 17
n 45 5
n 48 6
n 50 20
n 60 7
n 62 15
n 64 19
n 68 13
n 71 18
n 74 9
n 89 4
n 99 2
